p tw 28 194
0 1
0 2
0 8
0 16
0 6
0 17
0 26
0 3
0 24
0 21
0 13
0 22
0 27
0 14
0 20
0 5
1 2
1 6
1 7
1 5
1 12
1 8
1 10
1 26
1 17
1 21
1 3
1 15
1 4
1 19
2 19
2 20
2 6
2 26
2 8
2 10
2 21
2 14
2 9
2 17
2 3
2 27
2 4
2 15
2 13
2 24
2 5
3 4
3 5
3 10
3 11
3 9
3 19
3 22
3 16
3 27
3 24
3 13
3 21
3 12
3 23
3 15
3 7
3 25
4 5
4 8
4 25
4 13
4 15
4 16
4 19
4 10
4 20
5 12
5 16
5 14
5 27
5 8
5 26
5 24
5 20
5 10
6 7
6 21
6 22
6 26
6 17
6 11
6 10
6 20
6 14
6 27
7 8
7 9
7 21
7 13
7 10
7 25
8 9
8 13
8 14
8 15
8 16
8 25
8 26
8 17
8 21
8 20
8 24
8 10
9 15
9 19
9 26
9 17
9 16
9 23
10 11
10 21
10 12
10 20
10 16
10 25
10 26
10 27
11 14
11 24
11 17
11 13
11 26
11 18
11 27
12 13
12 14
12 16
12 23
12 22
12 21
12 24
12 20
13 14
13 26
13 17
13 22
13 16
13 19
13 27
13 21
13 15
13 20
13 24
14 24
14 27
14 18
14 26
14 22
14 16
14 25
14 17
14 20
14 19
15 18
15 24
15 20
16 17
16 18
16 24
16 27
16 23
16 19
16 25
16 22
16 20
17 18
17 22
17 24
17 21
18 24
18 26
18 27
18 20
19 20
19 22
20 26
21 22
21 23
21 25
22 23
23 24
23 25
23 26
24 25
24 27
24 26
26 27
